benchmarks/bfuzz0/190862732024524298023124415999122385166.smt2
(set-logic QF_FP)
(declare-const x0 (_ FloatingPoint 11 53))
(declare-const x1 (_ FloatingPoint 11 53))
(declare-const x2 (_ FloatingPoint 11 53))
(declare-const x3 (_ FloatingPoint 11 53))
(declare-const x4 (_ FloatingPoint 11 53))
(declare-const x5 (_ FloatingPoint 11 53))
(declare-const x6 (_ FloatingPoint 11 53))
(declare-const x7 (_ FloatingPoint 11 53))
(declare-const x8 (_ FloatingPoint 11 53))
(assert (fp.leq (fp.neg x3) (fp.mul RNE x0 x2)))
(assert (fp.gt (fp.neg x1) (fp.div RNE x2 x6)))
(assert (fp.gt (fp.add RNE x1 x8) (fp.add RNE x4 x2)))
(assert (fp.eq (fp.mul RNE x6 x7) (fp.sub RNE x2 x7)))
(assert (fp.geq (fp.mul RNE x5 x8) (fp.add RNE x7 x5)))
(assert (fp.geq (fp.div RNE x0 x6) (fp.mul RNE x8 x4)))
(assert (fp.eq (fp.neg x5) (fp.sub RNE x1 x0)))
(assert (fp.geq (fp.add RNE x7 x5) (fp.mul RNE x4 x5)))
(check-sat)
