db/data/190862732024524298023124415999122385166.z3.out
-------------------
2500.051028043
